Route #1: 34 29 6 82 77 
Route #2: 73 54 86 22 
Route #3: 85 70 1 41 
Route #4: 33 74 13 4 
Route #5: 32 49 42 28 14 
Route #6: 21 62 83 97 
Route #7: 95 90 84 18 
Route #8: 11 43 48 3 
Route #9: 24 51 81 91 
Route #10: 100 52 61 
Route #11: 46 78 10 39 
Route #12: 50 99 71 19 
Route #13: 96 26 98 89 27 
Route #14: 30 16 35 
Route #15: 23 87 72 67 88 
Route #16: 80 76 66 12 
Route #17: 94 47 92 68 15 
Route #18: 17 57 60 59 
Route #19: 75 55 5 
Route #20: 56 38 45 37 40 
Route #21: 58 69 9 20 
Route #22: 79 65 25 63 
Route #23: 44 7 2 36 64 
Route #24: 31 8 
Route #25: 53 93 
Cost 39598